
Gurobi 6.5.2 (win64) logging started 07/23/16 02:36:21


Gurobi 6.5.2 (win64) logging started 07/23/16 02:36:21

Optimize a model with 6721 rows, 1020 columns and 15477 nonzeros
Coefficient statistics:
  Matrix range    [4e-06, 1e+03]
  Objective range [1e+00, 1e+00]
  Bounds range    [1e+00, 1e+00]
  RHS range       [1e+00, 1e+03]
Found heuristic solution: objective 1021.44
Presolve removed 6695 rows and 993 columns
Presolve time: 0.00s
Presolved: 26 rows, 27 columns, 79 nonzeros
Found heuristic solution: objective 200.8785535
Variable types: 27 continuous, 0 integer (0 binary)

Root relaxation: objective 1.717162e+02, 17 iterations, 0.00 seconds

    Nodes    |    Current Node    |     Objective Bounds      |     Work
 Expl Unexpl |  Obj  Depth IntInf | Incumbent    BestBd   Gap | It/Node Time

*    0     0               0     171.7161615  171.71616  0.00%     -    0s

Explored 0 nodes (17 simplex iterations) in 0.01 seconds
Thread count was 8 (of 8 available processors)

Optimal solution found (tolerance 1.00e-04)
Best objective 1.717161615214e+02, best bound 1.717161615214e+02, gap 0.0%

Wrote requested result file 'H2\instance7\\Results7EC_Sol4.lp'

